; benchmark generated from python API
(set-info :status unknown)
(declare-fun DISJ_W_S2_R_S1 () Bool)
(declare-fun W_S2_V5 () Bool)
(declare-fun W_S1_V4 () Bool)
(declare-fun R_S2_V3 () Bool)
(declare-fun W_S2_V2 () Bool)
(declare-fun W_S2_V1 () Bool)
(declare-fun R_S2_V4 () Bool)
(declare-fun DISJ_W_S1_R_S2 () Bool)
(declare-fun DISJ_W_S2_R_S2 () Bool)
(declare-fun R_E1_V4 () Bool)
(declare-fun R_E1_V5 () Bool)
(declare-fun W_S1_V5 () Bool)
(declare-fun W_S2_V3 () Bool)
(declare-fun R_S2_V5 () Bool)
(declare-fun R_S2_V2 () Bool)
(declare-fun R_S2_V1 () Bool)
(declare-fun R_S1_V4 () Bool)
(declare-fun R_S1_V5 () Bool)
(declare-fun R_S1_V2 () Bool)
(declare-fun R_S1_V3 () Bool)
(declare-fun R_S1_V1 () Bool)
(declare-fun R_E1_V2 () Bool)
(declare-fun DISJ_W_S2_R_E1 () Bool)
(declare-fun DISJ_W_S1_W_S2 () Bool)
(declare-fun R_E1_V3 () Bool)
(declare-fun DISJ_W_S1_R_S1 () Bool)
(declare-fun W_S2_V4 () Bool)
(declare-fun W_S1_V3 () Bool)
(declare-fun W_S1_V2 () Bool)
(declare-fun W_S1_V1 () Bool)
(declare-fun R_E1_V1 () Bool)
(declare-fun DISJ_W_S1_R_E1 () Bool)
(assert
 (let (($x1158 (not (and (not R_S2_V3) (not W_S1_V4) (not W_S2_V5) DISJ_W_S2_R_S1))))
 (let (($x725 (not W_S2_V2)))
 (let (($x1552 (not W_S2_V1)))
 (let (($x1849 (and $x1552 $x725)))
 (let (($x2111 (not $x1849)))
 (let (($x181 (not (and (not R_S2_V3) (not R_S2_V4) (not W_S2_V5) DISJ_W_S2_R_S1))))
 (let (($x3522 (not (and DISJ_W_S1_R_S2 DISJ_W_S2_R_S1))))
 (let (($x3535 (not (and $x725 DISJ_W_S2_R_S2))))
 (let (($x1254 (not (and DISJ_W_S2_R_S1 DISJ_W_S2_R_S2))))
 (let (($x430 (not (and W_S1_V4 R_E1_V4))))
 (let (($x4031 (not (and W_S1_V5 R_E1_V5))))
 (let (($x72 (forall ((V3_0 Int) )(forall ((V2_0 Int) )(forall ((V5_0 Int) )(forall ((V4_0 Int) )(forall ((MW_S1_V1 Bool) )(forall ((MW_S1_V3 Bool) )(forall ((MW_S1_V2 Bool) )(forall ((MW_S1_V5 Bool) )(forall ((MW_S1_V4 Bool) )(forall ((MW_S2_V1 Bool) )(forall ((MW_S2_V3 Bool) )(forall ((MW_S2_V2 Bool) )(forall ((MW_S2_V5 Bool) )(forall ((MW_S2_V4 Bool) )(forall ((S1_V1_!2447 Int) )(forall ((S1_V1_!2457 Int) )(forall ((S1_V1_!2468 Int) )(forall ((S2_V5_!2455 Int) )(forall ((S2_V5_!2465 Int) )(forall ((S2_V5_!2477 Int) )(forall ((S2_V5_!2482 Int) )(forall ((S1_V3_!2448 Int) )(forall ((S1_V3_!2458 Int) )(forall ((S1_V3_!2469 Int) )(forall ((S1_V2_!2449 Int) )(forall ((S1_V2_!2459 Int) )(forall ((S1_V2_!2470 Int) )(forall ((E1_!2446 Int) )(forall ((E1_!2467 Int) )(forall ((E1_!2473 Int) )(forall ((S2_V4_!2456 Int) )(forall ((S2_V4_!2466 Int) )(forall ((S2_V4_!2478 Int) )(forall ((S2_V4_!2483 Int) )(forall ((S1_V5_!2450 Int) )(forall ((S1_V5_!2460 Int) )(forall ((S1_V5_!2471 Int) )(forall ((S2_V1_!2452 Int) )(forall ((S2_V1_!2462 Int) )(forall ((S2_V1_!2474 Int) )(forall ((S2_V1_!2479 Int) )(forall ((S1_V4_!2451 Int) )(forall ((S1_V4_!2461 Int) )(forall ((S1_V4_!2472 Int) )(forall ((S2_V2_!2454 Int) )(forall ((S2_V2_!2464 Int) )(forall ((S2_V2_!2476 Int) )(forall ((S2_V2_!2481 Int) )(forall ((S2_V3_!2453 Int) )(forall ((S2_V3_!2463 Int) )(forall ((S2_V3_!2475 Int) )(forall ((S2_V3_!2480 Int) )(let (($x3752 (= (ite MW_S2_V4 S2_V4_!2466 (ite MW_S1_V4 S1_V4_!2461 (ite MW_S2_V4 S2_V4_!2456 (ite MW_S1_V4 S1_V4_!2451 V4_0)))) (ite MW_S2_V4 S2_V4_!2483 (ite MW_S1_V4 S1_V4_!2472 V4_0)))))
 (let (($x3110 (= (ite MW_S2_V5 S2_V5_!2465 (ite MW_S1_V5 S1_V5_!2460 (ite MW_S2_V5 S2_V5_!2455 (ite MW_S1_V5 S1_V5_!2450 V5_0)))) (ite MW_S2_V5 S2_V5_!2482 (ite MW_S1_V5 S1_V5_!2471 V5_0)))))
 (let ((?x2102 (ite MW_S1_V2 S1_V2_!2470 V2_0)))
 (let ((?x547 (ite MW_S2_V2 S2_V2_!2481 ?x2102)))
 (let ((?x2084 (ite MW_S1_V2 S1_V2_!2449 V2_0)))
 (let ((?x4165 (ite MW_S2_V2 S2_V2_!2454 ?x2084)))
 (let ((?x2566 (ite MW_S1_V2 S1_V2_!2459 ?x4165)))
 (let ((?x2447 (ite MW_S2_V2 S2_V2_!2464 ?x2566)))
 (let (($x5721 (= (ite MW_S2_V3 S2_V3_!2463 (ite MW_S1_V3 S1_V3_!2458 (ite MW_S2_V3 S2_V3_!2453 (ite MW_S1_V3 S1_V3_!2448 V3_0)))) (ite MW_S2_V3 S2_V3_!2480 (ite MW_S1_V3 S1_V3_!2469 V3_0)))))
 (let ((?x4958 (ite MW_S2_V1 S2_V1_!2474 E1_!2473)))
 (let ((?x6015 (+ 1 ?x4958)))
 (let ((?x750 (ite MW_S2_V1 S2_V1_!2479 ?x6015)))
 (let ((?x2269 (ite MW_S1_V1 S1_V1_!2447 E1_!2446)))
 (let ((?x2224 (ite MW_S2_V1 S2_V1_!2452 ?x2269)))
 (let ((?x1382 (+ 1 ?x2224)))
 (let ((?x3972 (ite MW_S1_V1 S1_V1_!2457 ?x1382)))
 (let ((?x5894 (ite MW_S2_V1 S2_V1_!2462 ?x3972)))
 (let (($x675 (and (not (<= V2_0 E1_!2446)) (not (<= ?x4165 ?x1382)) (>= ?x5894 (+ (- 1) ?x2447)) (not (<= V2_0 E1_!2467)) (>= (ite MW_S1_V1 S1_V1_!2468 E1_!2467) (+ (- 1) ?x2102)) (not (<= ?x2102 E1_!2473)) (not (<= (ite MW_S2_V2 S2_V2_!2476 ?x2102) ?x6015)) (>= ?x750 (+ (- 1) ?x547)))))
 (let (($x2062 (= S2_V3_!2475 S2_V3_!2480)))
 (let (($x1954 (not R_S2_V4)))
 (let (($x4033 (or $x1954 (= (ite MW_S1_V4 S1_V4_!2472 V4_0) (ite MW_S2_V4 S2_V4_!2478 (ite MW_S1_V4 S1_V4_!2472 V4_0))))))
 (let (($x1828 (not R_S2_V5)))
 (let (($x5692 (or $x1828 (= (ite MW_S1_V5 S1_V5_!2471 V5_0) (ite MW_S2_V5 S2_V5_!2477 (ite MW_S1_V5 S1_V5_!2471 V5_0))))))
 (let (($x107 (not R_S2_V3)))
 (let (($x337 (or $x107 (= (ite MW_S1_V3 S1_V3_!2469 V3_0) (ite MW_S2_V3 S2_V3_!2475 (ite MW_S1_V3 S1_V3_!2469 V3_0))))))
 (let (($x3869 (and (or (not R_S2_V1) (= E1_!2473 ?x6015)) $x337 (or (not R_S2_V2) (= ?x2102 (ite MW_S2_V2 S2_V2_!2476 ?x2102))) $x5692 $x4033)))
 (let (($x4137 (not $x3869)))
 (let (($x860 (= S2_V3_!2475 S2_V3_!2463)))
 (let ((?x2254 (ite MW_S1_V4 S1_V4_!2451 V4_0)))
 (let ((?x5104 (ite MW_S2_V4 S2_V4_!2456 ?x2254)))
 (let ((?x2585 (ite MW_S1_V4 S1_V4_!2461 ?x5104)))
 (let ((?x5902 (ite MW_S1_V4 S1_V4_!2472 V4_0)))
 (let ((?x3682 (ite MW_S1_V5 S1_V5_!2450 V5_0)))
 (let ((?x2837 (ite MW_S2_V5 S2_V5_!2455 ?x3682)))
 (let ((?x2189 (ite MW_S1_V5 S1_V5_!2460 ?x2837)))
 (let ((?x899 (ite MW_S1_V5 S1_V5_!2471 V5_0)))
 (let ((?x3862 (ite MW_S1_V3 S1_V3_!2448 V3_0)))
 (let ((?x1265 (ite MW_S2_V3 S2_V3_!2453 ?x3862)))
 (let ((?x3661 (ite MW_S1_V3 S1_V3_!2458 ?x1265)))
 (let ((?x1569 (ite MW_S1_V3 S1_V3_!2469 V3_0)))
 (let (($x4995 (and (or (not R_S2_V1) (= E1_!2473 ?x3972)) (or $x107 (= ?x1569 ?x3661)) (or (not R_S2_V2) (= ?x2102 ?x2566)) (or $x1828 (= ?x899 ?x2189)) (or $x1954 (= ?x5902 ?x2585)))))
 (let (($x3527 (not $x4995)))
 (let (($x1571 (= S2_V3_!2475 S2_V3_!2453)))
 (let (($x5823 (and (or (not R_S2_V1) (= E1_!2473 ?x2269)) (or $x107 (= ?x1569 ?x3862)) (or (not R_S2_V2) (= ?x2102 ?x2084)) (or $x1828 (= ?x899 ?x3682)) (or $x1954 (= ?x5902 ?x2254)))))
 (let (($x6030 (not $x5823)))
 (let (($x3194 (= S2_V3_!2463 S2_V3_!2480)))
 (let (($x1100 (and (or (not R_S2_V1) (= ?x3972 ?x6015)) (or $x107 (= ?x3661 (ite MW_S2_V3 S2_V3_!2475 ?x1569))) (or (not R_S2_V2) (= ?x2566 (ite MW_S2_V2 S2_V2_!2476 ?x2102))) (or $x1828 (= ?x2189 (ite MW_S2_V5 S2_V5_!2477 ?x899))) (or $x1954 (= ?x2585 (ite MW_S2_V4 S2_V4_!2478 ?x5902))))))
 (let (($x4673 (not $x1100)))
 (let (($x624 (= S2_V3_!2463 S2_V3_!2453)))
 (let (($x1752 (and (or (not R_S2_V1) (= ?x3972 ?x2269)) (or $x107 (= ?x3661 ?x3862)) (or (not R_S2_V2) (= ?x2566 ?x2084)) (or $x1828 (= ?x2189 ?x3682)) (or $x1954 (= ?x2585 ?x2254)))))
 (let (($x486 (not $x1752)))
 (let (($x1717 (= S2_V3_!2453 S2_V3_!2480)))
 (let (($x4047 (and (or (not R_S2_V1) (= ?x2269 ?x6015)) (or $x107 (= ?x3862 (ite MW_S2_V3 S2_V3_!2475 ?x1569))) (or (not R_S2_V2) (= ?x2084 (ite MW_S2_V2 S2_V2_!2476 ?x2102))) (or $x1828 (= ?x3682 (ite MW_S2_V5 S2_V5_!2477 ?x899))) (or $x1954 (= ?x2254 (ite MW_S2_V4 S2_V4_!2478 ?x5902))))))
 (let (($x3461 (not $x4047)))
 (let (($x4933 (= S2_V2_!2481 S2_V2_!2476)))
 (let (($x661 (and (or (not R_S2_V1) (= ?x4958 (+ (- 1) E1_!2473))) (or $x107 (= (ite MW_S2_V3 S2_V3_!2475 ?x1569) ?x1569)) (or (not R_S2_V2) (= (ite MW_S2_V2 S2_V2_!2476 ?x2102) ?x2102)) (or $x1828 (= (ite MW_S2_V5 S2_V5_!2477 ?x899) ?x899)) (or $x1954 (= (ite MW_S2_V4 S2_V4_!2478 ?x5902) ?x5902)))))
 (let (($x416 (not $x661)))
 (let (($x558 (= S2_V2_!2481 S2_V2_!2464)))
 (let (($x5678 (and (or (not R_S2_V1) (= ?x4958 (+ (- 1) ?x3972))) (or $x107 (= (ite MW_S2_V3 S2_V3_!2475 ?x1569) ?x3661)) (or (not R_S2_V2) (= (ite MW_S2_V2 S2_V2_!2476 ?x2102) ?x2566)) (or $x1828 (= (ite MW_S2_V5 S2_V5_!2477 ?x899) ?x2189)) (or $x1954 (= (ite MW_S2_V4 S2_V4_!2478 ?x5902) ?x2585)))))
 (let (($x564 (= S2_V2_!2464 S2_V2_!2476)))
 (let (($x1495 (and (or (not R_S2_V1) (= ?x3972 E1_!2473)) (or $x107 (= ?x3661 ?x1569)) (or (not R_S2_V2) (= ?x2566 ?x2102)) (or $x1828 (= ?x2189 ?x899)) (or $x1954 (= ?x2585 ?x5902)))))
 (let (($x594 (not $x1495)))
 (let (($x1813 (= S2_V2_!2454 S2_V2_!2476)))
 (let (($x1952 (and (or (not R_S2_V1) (= ?x2269 E1_!2473)) (or $x107 (= ?x3862 ?x1569)) (or (not R_S2_V2) (= ?x2084 ?x2102)) (or $x1828 (= ?x3682 ?x899)) (or $x1954 (= ?x2254 ?x5902)))))
 (let (($x3185 (not $x1952)))
 (let (($x260 (= S2_V2_!2454 S2_V2_!2464)))
 (let (($x4889 (and (or (not R_S2_V1) (= ?x2269 ?x3972)) (or $x107 (= ?x3862 ?x3661)) (or (not R_S2_V2) (= ?x2084 ?x2566)) (or $x1828 (= ?x3682 ?x2189)) (or $x1954 (= ?x2254 ?x2585)))))
 (let (($x3451 (not $x4889)))
 (let (($x5238 (= S1_V4_!2472 S1_V4_!2461)))
 (let (($x121 (not R_S1_V4)))
 (let (($x5301 (or $x121 (= V4_0 ?x5104))))
 (let (($x3281 (not R_S1_V5)))
 (let (($x3156 (or $x3281 (= V5_0 ?x2837))))
 (let (($x4911 (not R_S1_V2)))
 (let (($x2157 (or $x4911 (= V2_0 ?x4165))))
 (let (($x2403 (not R_S1_V3)))
 (let (($x3841 (or $x2403 (= V3_0 ?x1265))))
 (let (($x2956 (not (and (or (not R_S1_V1) (= E1_!2467 ?x1382)) $x3841 $x2157 $x3156 $x5301))))
 (let (($x1403 (not (and (or (not R_S1_V1) (= E1_!2446 ?x1382)) $x3841 $x2157 $x3156 $x5301))))
 (let (($x5696 (and (or (not R_S2_V1) (= ?x4958 (+ (- 1) ?x2269))) (or $x107 (= (ite MW_S2_V3 S2_V3_!2475 ?x1569) ?x3862)) (or (not R_S2_V2) (= (ite MW_S2_V2 S2_V2_!2476 ?x2102) ?x2084)) (or $x1828 (= (ite MW_S2_V5 S2_V5_!2477 ?x899) ?x3682)) (or $x1954 (= (ite MW_S2_V4 S2_V4_!2478 ?x5902) ?x2254)))))
 (let (($x4857 (and (or (not R_E1_V2) (= V2_0 ?x2102)) (or (not R_E1_V5) (= V5_0 ?x899)) (or (not R_E1_V4) (= V4_0 ?x5902)))))
 (let (($x6325 (not $x4857)))
 (let (($x329 (= E1_!2467 E1_!2446)))
 (let (($x1724 (or $x121 (= ?x5104 V4_0))))
 (let (($x2543 (or $x3281 (= ?x2837 V5_0))))
 (let (($x5163 (or $x4911 (= ?x4165 V2_0))))
 (let (($x2639 (or $x2403 (= ?x1265 V3_0))))
 (let (($x3263 (and (or (not R_S1_V1) (= ?x2224 (+ (- 1) E1_!2467))) $x2639 $x5163 $x2543 $x1724)))
 (let (($x2185 (not $x3263)))
 (let (($x3247 (= S1_V2_!2459 S1_V2_!2449)))
 (let (($x1814 (and (or (not R_S1_V1) (= ?x2224 (+ (- 1) E1_!2446))) $x2639 $x5163 $x2543 $x1724)))
 (let (($x4770 (not $x1814)))
 (let (($x5558 (and (or $x4770 (= S1_V1_!2457 S1_V1_!2447)) (or (not (or (not R_S1_V1) $x329)) (= S1_V1_!2468 S1_V1_!2447)) (or $x2956 (= S1_V1_!2468 S1_V1_!2457)) (or $x3451 (= S2_V5_!2455 S2_V5_!2465)) (or $x3185 (= S2_V5_!2455 S2_V5_!2477)) (or $x3461 (= S2_V5_!2455 S2_V5_!2482)) (or $x594 (= S2_V5_!2465 S2_V5_!2477)) (or $x4673 (= S2_V5_!2465 S2_V5_!2482)) (or $x416 (= S2_V5_!2482 S2_V5_!2477)) (or $x4770 (= S1_V3_!2458 S1_V3_!2448)) (or $x2185 (= S1_V3_!2458 S1_V3_!2469)) (or (not (or (not R_S1_V1) $x329)) (= S1_V3_!2469 S1_V3_!2448)) (or $x4770 $x3247) (or $x2185 (= S1_V2_!2459 S1_V2_!2470)) (or (not (or (not R_S1_V1) $x329)) (= S1_V2_!2470 S1_V2_!2449)) (or $x6325 (= E1_!2446 E1_!2473)) $x329 (or $x6325 (= E1_!2467 E1_!2473)) (or $x486 (= S2_V4_!2466 S2_V4_!2456)) (or $x594 (= S2_V4_!2466 S2_V4_!2478)) (or $x4673 (= S2_V4_!2466 S2_V4_!2483)) (or $x6030 (= S2_V4_!2478 S2_V4_!2456)) (or $x4137 (= S2_V4_!2478 S2_V4_!2483)) (or (not $x5696) (= S2_V4_!2483 S2_V4_!2456)) (or $x1403 (= S1_V5_!2450 S1_V5_!2460)) (or (not (or (not R_S1_V1) $x329)) (= S1_V5_!2471 S1_V5_!2450)) (or $x2956 (= S1_V5_!2471 S1_V5_!2460)) (or $x3461 (= S2_V1_!2452 S2_V1_!2479)) (or $x486 (= S2_V1_!2462 S2_V1_!2452)) (or $x4673 (= S2_V1_!2462 S2_V1_!2479)) (or $x6030 (= S2_V1_!2474 S2_V1_!2452)) (or $x3527 (= S2_V1_!2474 S2_V1_!2462)) (or $x4137 (= S2_V1_!2474 S2_V1_!2479)) (or $x1403 (= S1_V4_!2451 S1_V4_!2461)) (or (not (or (not R_S1_V1) (= E1_!2446 E1_!2467))) (= S1_V4_!2451 S1_V4_!2472)) (or $x2956 $x5238) (or $x3451 $x260) (or $x3185 $x1813) (or $x3461 (= S2_V2_!2454 S2_V2_!2481)) (or $x594 $x564) (or (not $x5678) $x558) (or $x416 $x4933) (or $x3461 $x1717) (or $x486 $x624) (or $x4673 $x3194) (or $x6030 $x1571) (or $x3527 $x860) (or $x4137 $x2062) (not MW_S1_V1) (not MW_S1_V2) (or (not MW_S1_V5) W_S1_V5) (or (not MW_S1_V4) W_S1_V4) (or (not MW_S2_V1) W_S2_V1) (or (not MW_S2_V3) W_S2_V3) (or (not MW_S2_V2) W_S2_V2) (or (not MW_S2_V5) W_S2_V5))))
 (or (not $x5558) (not $x675) (and (= ?x5894 ?x750) $x5721 (= ?x2447 ?x547) $x3110 $x3752))))))))))))))))))))))))))))))))))))))))))))))))))))))))))))))))))))))))))))))))))))))))))))))))
 )
 )
 )
 )
 )
 )
 )
 )
 )
 )
 )
 )
 )
 )
 )
 )
 )
 )
 )
 )
 )
 )
 )
 )
 )
 )
 )
 )
 )
 )
 )
 )
 )
 )
 )
 )
 )
 )
 )
 )
 )
 )
 )
 )
 )
 )
 )
 )
 )
 )
 )
 ))
 (let (($x5920 (not (or (and W_S2_V2 R_E1_V2) (and W_S2_V5 R_E1_V5) R_E1_V4))))
 (let (($x5183 (= DISJ_W_S2_R_E1 $x5920)))
 (let (($x4398 (and W_S2_V5 R_S2_V5)))
 (let (($x1258 (and W_S2_V2 R_S2_V2)))
 (let (($x2536 (and W_S2_V3 R_S2_V3)))
 (let (($x2283 (and W_S2_V1 R_S2_V1)))
 (let (($x3298 (= DISJ_W_S2_R_S2 (not (or $x2283 $x2536 $x1258 $x4398 R_S2_V4)))))
 (let (($x3217 (and W_S2_V5 R_S1_V5)))
 (let (($x3166 (and W_S2_V2 R_S1_V2)))
 (let (($x149 (and W_S2_V3 R_S1_V3)))
 (let (($x1430 (and W_S2_V1 R_S1_V1)))
 (let (($x2343 (= DISJ_W_S2_R_S1 (not (or $x1430 $x149 $x3166 $x3217 R_S1_V4)))))
 (let (($x2460 (= DISJ_W_S1_W_S2 (not (or W_S2_V3 (and W_S1_V5 W_S2_V5) W_S1_V4)))))
 (let (($x251 (not R_E1_V3)))
 (let (($x6330 (not (or R_S2_V3 (and W_S1_V5 R_S2_V5) (and W_S1_V4 R_S2_V4)))))
 (let (($x4408 (= DISJ_W_S1_R_S2 $x6330)))
 (let (($x5152 (not (or R_S1_V3 (and W_S1_V5 R_S1_V5) (and W_S1_V4 R_S1_V4)))))
 (let (($x3539 (= DISJ_W_S1_R_S1 $x5152)))
 (let (($x1572 (not R_S1_V1)))
 (let (($x2445 (and $x1572 DISJ_W_S1_R_S1)))
 (let (($x5752 (and $x725 DISJ_W_S2_R_S1 DISJ_W_S1_R_S1)))
 (let (($x2258 (or $x5752 $x1849 $x2445)))
 (let (($x347 (not W_S1_V2)))
 (let (($x3087 (not W_S1_V1)))
 (let (($x1588 (not R_E1_V1)))
 (let (($x4125 (and DISJ_W_S1_R_E1 $x1588 $x3087 $x347 $x2258 W_S1_V3 W_S2_V4 $x3539 $x4408 $x251 $x2460 $x2343 $x3298 $x5183 $x72 $x4031 $x430)))
 (and $x4125 $x1254 $x3535 $x3522 $x181 $x2111 $x1158))))))))))))))))))))))))))))))))))))))))
(check-sat)
